NAME : ../File/prFile/tspFile/tsp_file47.tsp.482.tour
COMMENT : Length = 482
COMMENT : Found by LKH-3 [Keld Helsgaun] Wed Jun 14 15:57:59 2023
TYPE : TOUR
DIMENSION : 30
TOUR_SECTION
1
21
25
3
23
11
24
7
8
12
13
10
2
28
19
26
29
22
20
14
17
27
4
18
5
6
9
16
15
30
-1
EOF
